0 9864.11
1 9746.27
2 9746.27
3 9618.97
4 9254.73
5 9189.06
6 9172.96
7 9172.96
8 9058.73
9 9058.73
10 8979.10
11 8979.10
12 8937.24
13 8907.77
14 8907.77
15 8877.24
16 8870.95
17 8870.95
18 8669.45
19 8669.45
20 8669.45
21 8669.45
22 8669.45
23 8669.45
24 8663.89
25 8663.89
26 8663.89
27 8584.90
28 8576.25
29 8576.25
30 8576.25
31 8576.25
32 8576.25
33 8510.63
34 8508.77
35 8479.64
36 8368.43
37 8368.43
38 8335.59
39 8335.59
40 8335.59
41 8333.12
42 8253.98
43 8253.98
44 8253.98
45 8253.98
46 8253.98
47 8253.98
48 8253.98
49 8204.07
50 8204.07
51 8172.47
52 8172.47
53 8126.10
54 8126.10
55 8126.10
56 8126.10
57 8126.10
58 8126.10
59 8126.10
60 8091.27
61 8085.17
62 8085.17
63 8085.17
64 8073.00
65 8073.00
66 8056.69
67 8056.69
68 8055.41
69 8055.41
70 8047.49
71 8047.49
72 7994.03
73 7994.03
74 7994.03
75 7994.03
76 7983.19
77 7899.61
78 7899.61
79 7899.61
80 7899.61
81 7899.61
82 7899.61
83 7847.39
84 7847.39
85 7847.39
86 7819.32
87 7819.32
88 7782.40
89 7782.40
90 7782.40
91 7782.40
92 7782.40
93 7782.40
94 7776.88
95 7776.88
96 7767.84
97 7767.84
98 7767.84
99 7767.84
100 7767.84
101 7767.84
102 7767.84
103 7767.84
104 7767.84
105 7767.84
106 7767.84
107 7767.84
108 7767.84
109 7739.66
110 7739.66
111 7739.66
112 7739.66
113 7739.66
114 7739.66
115 7739.66
116 7648.05
117 7648.05
118 7648.05
119 7648.05
120 7648.05
121 7648.05
122 7630.38
123 7630.38
124 7630.38
125 7630.38
126 7617.08
127 7617.08
128 7617.08
129 7617.08
130 7605.43
131 7605.43
132 7605.43
133 7601.05
134 7553.52
135 7553.52
136 7527.51
137 7527.51
138 7527.51
139 7527.51
140 7527.51
141 7527.51
142 7527.51
143 7448.88
144 7448.88
145 7448.88
146 7448.88
147 7448.88
148 7420.96
149 7380.70
150 7380.70
151 7380.70
152 7380.70
153 7380.70
154 7380.70
155 7380.70
156 7380.70
157 7380.70
158 7380.70
159 7380.70
160 7380.70
161 7374.63
162 7374.63
163 7374.63
164 7338.49
165 7338.49
166 7338.49
167 7333.53
168 7333.53
169 7333.53
170 7333.53
171 7333.53
172 7333.53
173 7333.53
174 7333.53
175 7285.34
176 7285.34
177 7285.34
178 7285.34
179 7285.34
180 7285.34
181 7285.34
182 7233.60
183 7233.60
184 7233.60
185 7233.60
186 7233.60
187 7233.60
188 7233.60
189 7233.60
190 7233.60
191 7233.60
192 7233.60
193 7233.60
194 7233.60
195 7233.60
196 7233.60
197 7233.60
198 7233.60
199 7233.60
200 7233.60
201 7233.60
202 7233.60
203 7233.60
204 7233.60
205 7233.60
206 7233.60
207 7233.60
208 7233.60
209 7233.60
210 7233.60
211 7233.60
212 7233.60
213 7233.60
214 7233.60
215 7233.60
216 7233.60
217 7233.60
218 7233.60
219 7233.60
220 7233.60
221 7233.60
222 7233.60
223 7233.60
224 7233.60
225 7233.60
226 7232.67
227 7209.26
228 7209.26
229 7209.26
230 7209.26
231 7209.26
232 7209.26
233 7209.26
234 7195.39
235 7195.39
236 7195.39
237 7195.39
238 7195.39
239 7195.39
240 7195.39
241 7195.39
242 7195.39
243 7195.39
244 7195.39
245 7188.85
246 7188.85
247 7188.85
248 7188.85
249 7188.85
250 7188.85
251 7188.85
252 7073.65
253 7073.65
254 7073.65
255 7073.65
256 7073.65
257 7073.65
258 7073.65
259 7073.65
260 7073.65
261 7073.65
262 7073.65
263 7073.65
264 7073.65
265 7073.65
266 7073.65
267 7073.65
268 7073.65
269 7073.65
270 7073.65
271 7073.65
272 7073.65
273 7073.65
274 7073.65
275 7073.65
276 7073.65
277 7046.57
278 7046.57
279 7046.57
280 7046.57
281 7046.57
282 7024.32
283 7024.32
284 7024.32
285 7024.32
286 7024.32
287 7024.32
288 7024.32
289 7024.32
290 7024.32
291 7024.32
292 7024.32
293 6963.27
294 6963.27
295 6963.27
296 6963.27
297 6963.27
298 6963.27
299 6963.27
300 6963.27
301 6963.27
302 6961.62
303 6961.62
304 6961.62
305 6961.62
306 6961.62
307 6961.62
308 6961.62
309 6961.62
310 6961.62
311 6961.62
312 6961.62
313 6961.62
314 6961.62
315 6961.62
316 6954.89
317 6954.89
318 6954.89
319 6954.89
320 6954.89
321 6954.89
322 6954.89
323 6954.89
324 6954.89
325 6954.89
326 6954.89
327 6954.89
328 6954.89
329 6954.89
330 6954.89
331 6954.89
332 6954.89
333 6954.89
334 6946.05
335 6946.05
336 6946.05
337 6946.05
338 6946.05
339 6946.05
340 6946.05
341 6946.05
342 6946.05
343 6946.05
344 6946.05
345 6946.05
346 6946.05
347 6946.05
348 6946.05
349 6946.05
350 6941.53
351 6941.53
352 6941.53
353 6941.53
354 6941.53
355 6941.53
356 6941.53
357 6937.93
358 6937.93
359 6937.93
360 6937.93
361 6937.93
362 6937.93
363 6937.93
364 6903.05
365 6903.05
366 6903.05
367 6903.05
368 6903.05
369 6903.05
370 6903.05
371 6903.05
372 6903.05
373 6903.05
374 6903.05
375 6903.05
376 6903.05
377 6903.05
378 6903.05
379 6903.05
380 6903.05
381 6903.05
382 6903.05
383 6903.05
384 6903.05
385 6903.05
386 6903.05
387 6903.05
388 6903.05
389 6903.05
390 6903.05
391 6903.05
392 6903.05
393 6901.40
394 6901.40
395 6901.40
396 6901.40
397 6901.40
398 6901.40
399 6901.40
400 6901.40
401 6901.40
402 6901.40
403 6901.40
404 6901.40
405 6901.40
406 6901.40
407 6901.40
408 6901.40
409 6901.40
410 6901.40
411 6901.40
412 6901.40
413 6901.40
414 6901.40
415 6901.40
416 6901.40
417 6901.40
418 6901.40
419 6901.40
420 6862.08
421 6862.08
422 6862.08
423 6862.08
424 6862.08
425 6862.08
426 6862.08
427 6862.08
428 6862.08
429 6862.08
430 6862.08
431 6862.08
432 6862.08
433 6862.08
434 6862.08
435 6860.85
436 6846.19
437 6846.19
438 6846.19
439 6846.19
440 6846.19
441 6846.19
442 6846.19
443 6846.19
444 6846.19
445 6846.19
446 6846.19
447 6846.19
448 6846.19
449 6846.19
450 6846.19
451 6846.19
452 6846.19
453 6846.19
454 6846.19
455 6846.19
456 6846.19
457 6846.19
458 6846.19
459 6846.19
460 6846.19
461 6846.19
462 6846.19
463 6846.19
464 6846.19
465 6846.19
466 6846.19
467 6846.19
468 6846.19
469 6846.19
470 6843.66
471 6843.66
472 6843.66
473 6843.66
474 6843.66
475 6843.66
476 6843.66
477 6843.66
478 6843.66
479 6843.66
480 6843.66
481 6843.66
482 6843.66
483 6843.66
484 6843.66
485 6778.53
486 6778.53
487 6778.53
488 6778.53
489 6778.53
490 6778.53
491 6778.53
492 6778.53
493 6778.53
494 6778.53
495 6778.53
496 6778.53
497 6778.53
498 6778.53
499 6778.53
500 6778.53
501 6778.53
502 6778.53
503 6778.53
504 6778.53
505 6778.53
506 6778.53
507 6778.53
508 6778.53
509 6778.53
510 6765.98
511 6765.98
512 6765.98
513 6765.98
514 6765.98
515 6765.98
516 6765.98
517 6765.98
518 6765.98
519 6765.98
520 6765.98
521 6765.98
522 6765.98
523 6765.98
524 6765.98
525 6765.98
526 6765.98
527 6750.53
528 6750.53
529 6750.53
530 6750.53
531 6750.53
532 6750.53
533 6750.53
534 6750.53
535 6750.53
536 6750.53
537 6750.53
538 6750.53
539 6750.53
540 6750.53
541 6750.53
542 6750.53
543 6750.53
544 6750.53
545 6750.53
546 6750.53
547 6750.53
548 6750.53
549 6750.53
550 6750.53
551 6750.53
552 6750.53
553 6750.53
554 6750.53
555 6750.53
556 6750.53
557 6750.53
558 6750.53
559 6750.53
560 6750.53
561 6750.53
562 6750.53
563 6750.53
564 6750.53
565 6750.53
566 6750.53
567 6750.53
568 6750.53
569 6750.53
570 6750.53
571 6750.53
572 6750.53
573 6750.53
574 6750.53
575 6750.53
576 6750.53
577 6700.29
578 6700.29
579 6700.29
580 6700.29
581 6700.29
582 6700.29
583 6700.29
584 6700.29
585 6700.29
586 6700.29
587 6700.29
588 6700.29
589 6700.29
590 6700.29
591 6700.29
592 6700.29
593 6680.36
594 6680.36
595 6680.36
596 6680.36
597 6680.36
598 6680.36
599 6680.36
600 6680.36
601 6680.36
602 6680.36
603 6680.36
604 6680.36
605 6680.36
606 6680.36
607 6680.36
608 6680.36
609 6680.36
610 6680.36
611 6680.36
612 6680.36
613 6680.36
614 6680.36
615 6680.36
616 6680.36
617 6680.36
618 6680.36
619 6680.36
620 6680.36
621 6680.36
622 6680.36
623 6680.36
624 6680.36
625 6680.36
626 6680.36
627 6680.36
628 6680.36
629 6680.36
630 6680.36
631 6680.36
632 6680.36
633 6680.36
634 6680.36
635 6680.36
636 6680.36
637 6680.36
638 6680.36
639 6680.36
640 6680.36
641 6680.36
642 6680.36
643 6680.36
644 6680.36
645 6680.36
646 6680.36
647 6680.36
648 6680.36
649 6680.36
650 6680.36
651 6680.36
652 6680.36
653 6680.36
654 6680.36
655 6680.36
656 6680.36
657 6680.36
658 6680.36
659 6680.36
660 6680.36
661 6680.36
662 6680.36
663 6680.36
664 6680.36
665 6680.36
666 6680.36
667 6680.36
668 6680.36
669 6680.36
670 6680.36
671 6680.36
672 6680.36
673 6680.36
674 6680.36
675 6680.36
676 6680.36
677 6680.36
678 6680.36
679 6680.36
680 6680.36
681 6680.36
682 6680.36
683 6680.36
684 6680.36
685 6680.36
686 6680.36
687 6680.36
688 6680.36
689 6680.36
690 6680.36
691 6680.36
692 6680.36
693 6680.36
694 6680.36
695 6680.36
696 6680.36
697 6680.36
698 6680.36
699 6680.36
700 6680.36
701 6680.36
702 6680.36
703 6680.36
704 6680.36
705 6680.36
706 6680.36
707 6680.36
708 6680.36
709 6680.36
710 6680.36
711 6680.36
712 6680.36
713 6680.36
714 6680.36
715 6680.36
716 6680.36
717 6653.81
718 6653.81
719 6653.81
720 6653.81
721 6653.81
722 6653.81
723 6653.81
724 6653.81
725 6653.81
726 6653.81
727 6653.81
728 6653.81
729 6653.81
730 6653.81
731 6653.81
732 6653.81
733 6653.81
734 6653.81
735 6653.81
736 6653.81
737 6653.81
738 6653.81
739 6653.81
740 6653.81
741 6653.81
742 6653.81
743 6653.81
744 6653.81
745 6630.63
746 6630.63
747 6630.63
748 6630.63
749 6630.63
750 6630.63
751 6630.63
752 6630.63
753 6630.63
754 6630.63
755 6630.63
756 6630.63
757 6630.63
758 6630.63
759 6630.63
760 6630.63
761 6630.63
762 6630.63
763 6630.63
764 6630.63
765 6630.63
766 6630.63
767 6630.63
768 6630.63
769 6630.63
770 6630.63
771 6630.63
772 6630.63
773 6630.63
774 6630.63
775 6630.63
776 6630.63
777 6630.63
778 6630.63
779 6630.63
780 6630.63
781 6630.63
782 6630.63
783 6630.63
784 6630.63
785 6630.63
786 6630.63
787 6630.63
788 6630.63
789 6630.63
790 6630.63
791 6630.63
792 6630.63
793 6630.63
794 6630.63
795 6630.63
796 6630.63
797 6630.63
798 6630.63
799 6630.63
800 6630.63
801 6630.63
802 6630.63
803 6630.63
804 6630.63
805 6630.63
806 6630.63
807 6630.63
808 6630.63
809 6630.63
810 6630.63
811 6630.63
812 6630.63
813 6630.63
814 6630.63
815 6630.63
816 6630.63
817 6630.63
818 6630.63
819 6630.63
820 6630.63
821 6630.63
822 6630.63
823 6630.63
824 6630.63
825 6630.63
826 6630.63
827 6630.63
828 6630.63
829 6630.63
830 6630.63
831 6630.63
832 6630.63
833 6630.63
834 6630.63
835 6630.63
836 6630.63
837 6630.63
838 6630.63
839 6630.63
840 6630.63
841 6630.63
842 6630.63
843 6630.63
844 6630.63
845 6630.63
846 6630.63
847 6630.63
848 6630.63
849 6630.63
850 6613.49
851 6613.49
852 6613.49
853 6613.49
854 6613.49
855 6613.49
856 6613.49
857 6613.49
858 6613.49
859 6613.49
860 6613.49
861 6613.49
862 6613.49
863 6613.49
864 6613.49
865 6613.49
866 6613.49
867 6613.49
868 6613.49
869 6613.49
870 6613.49
871 6613.49
872 6613.49
873 6613.49
874 6613.49
875 6613.49
876 6609.56
877 6609.56
878 6609.56
879 6609.56
880 6609.56
881 6609.56
882 6609.56
883 6609.56
884 6609.56
885 6609.56
886 6609.56
887 6609.56
888 6609.56
889 6609.56
890 6609.56
891 6609.56
892 6595.74
893 6595.74
894 6595.74
895 6595.74
896 6595.74
897 6595.74
898 6595.74
899 6595.74
900 6595.74
901 6595.74
902 6595.74
903 6595.74
904 6595.74
905 6593.80
906 6593.80
907 6593.80
908 6579.94
909 6579.94
910 6579.94
911 6579.94
912 6579.94
913 6579.94
914 6579.94
915 6579.94
916 6579.94
917 6579.94
918 6579.94
919 6579.94
920 6579.94
921 6579.94
922 6579.94
923 6579.94
924 6579.94
925 6579.94
926 6579.94
927 6579.94
928 6579.94
929 6579.94
930 6579.94
931 6552.01
932 6552.01
933 6552.01
934 6552.01
935 6552.01
936 6552.01
937 6552.01
938 6552.01
939 6552.01
940 6552.01
941 6552.01
942 6552.01
943 6552.01
944 6541.97
945 6541.97
946 6541.97
947 6541.97
948 6541.97
949 6541.97
950 6541.97
951 6541.97
952 6541.97
953 6541.97
954 6541.97
955 6541.97
956 6541.97
957 6541.97
958 6541.97
959 6541.97
960 6541.97
961 6541.97
962 6541.97
963 6541.97
964 6541.97
965 6541.97
966 6541.97
967 6541.97
968 6541.97
969 6541.97
970 6541.97
971 6541.97
972 6541.97
973 6541.97
974 6541.97
975 6541.97
976 6541.97
977 6541.97
978 6541.97
979 6541.97
980 6541.97
981 6541.97
982 6541.97
983 6541.97
984 6541.97
985 6541.97
986 6541.97
987 6541.97
988 6541.97
989 6541.97
990 6541.97
991 6541.97
992 6541.97
993 6541.97
994 6541.97
995 6541.97
996 6541.97
997 6541.97
998 6541.97
999 6541.97
34 5 2 0 0 0 